@relation TraceFlowBugClassification

@attribute loop_iteration_count numeric
@attribute loop_control_mutations numeric
@attribute condition_repeat_count numeric
@attribute variable_mutation_frequency numeric
@attribute recursion_depth numeric
@attribute method_call_count numeric
@attribute exception_count numeric
@attribute null_access_count numeric
@attribute execution_steps numeric
@attribute execution_duration numeric
@attribute syntax_error_count numeric
@attribute type_mismatch_count numeric
@attribute arithmetic_risk_count numeric
@attribute resource_leak_count numeric
@attribute logical_bug_count numeric
@attribute cyclomatic_complexity numeric
@attribute code_lines_count numeric
@attribute class {NORMAL,INFINITE_LOOP,OFF_BY_ONE,NULL_POINTER,ARITHMETIC_ERROR,RECURSION_RISK,COMPILATION_ERROR,TYPE_MISMATCH,RESOURCE_LEAK,LOGICAL_BUG,INDEX_OUT_OF_BOUNDS}

@data
10,10,12,0.45,1,1,0,0,45,30,0,0,0,0,0,2,25,NORMAL
20,20,25,0.5,1,2,0,0,80,50,0,0,0,0,0,3,40,NORMAL
5,5,7,0.35,1,1,0,0,25,15,0,0,0,0,0,2,20,NORMAL
0,2,3,0.3,1,1,0,0,15,10,0,0,0,0,0,1,15,NORMAL
45,45,50,0.4,1,3,0,0,120,70,0,0,0,0,0,4,60,NORMAL
15,15,18,0.48,1,1,0,0,60,35,0,0,0,0,0,2,30,NORMAL
8,8,10,0.38,1,2,0,0,35,20,0,0,0,0,0,2,22,NORMAL
30,30,35,0.52,1,1,0,0,110,65,0,0,0,0,0,3,50,NORMAL
500,0,500,0.02,1,1,0,0,500,5000,0,0,0,0,0,2,20,INFINITE_LOOP
500,500,500,0.6,1,1,0,0,500,5000,0,0,0,0,0,2,20,INFINITE_LOOP
450,1,450,0.05,1,1,0,0,450,4800,0,0,0,0,0,2,22,INFINITE_LOOP
500,250,500,0.3,1,1,0,0,500,5000,0,0,0,0,0,2,18,INFINITE_LOOP
380,0,380,0.01,1,1,0,0,380,4200,0,0,0,0,0,2,25,INFINITE_LOOP
500,2,500,0.03,1,1,0,0,500,5000,0,0,0,0,0,2,19,INFINITE_LOOP
10,11,12,0.42,1,1,1,0,42,30,0,0,0,0,0,2,25,OFF_BY_ONE
5,6,7,0.4,1,1,1,0,26,20,0,0,0,0,0,2,20,OFF_BY_ONE
20,21,22,0.45,1,1,1,0,78,45,0,0,0,0,0,2,30,OFF_BY_ONE
15,16,17,0.43,1,1,1,0,58,35,0,0,0,0,0,2,28,OFF_BY_ONE
8,9,10,0.39,1,1,1,0,36,25,0,0,0,0,0,2,24,OFF_BY_ONE
4,5,6,0.35,1,1,1,0,22,15,0,0,0,0,0,2,18,OFF_BY_ONE
0,1,1,0.2,1,1,1,1,8,10,0,0,0,0,0,1,15,NULL_POINTER
2,3,4,0.3,1,1,1,2,18,15,0,0,0,0,0,2,20,NULL_POINTER
0,0,1,0.15,1,1,1,1.5,6,8,0,0,0,0,0,1,12,NULL_POINTER
5,6,7,0.32,1,1,1,1,28,20,0,0,0,0,0,2,25,NULL_POINTER
1,2,2,0.25,1,1,1,2.5,12,12,0,0,0,0,0,1,16,NULL_POINTER
0,0,0,0.1,1,1,1,0,5,10,0,0,1,0,0,1,10,ARITHMETIC_ERROR
2,2,3,0.2,1,1,1,0,12,15,0,0,2,0,0,2,18,ARITHMETIC_ERROR
0,1,1,0.15,1,1,1,0,6,8,0,0,1,0,0,1,14,ARITHMETIC_ERROR
1,1,2,0.18,1,1,1,0,8,11,0,0,1,0,0,1,16,ARITHMETIC_ERROR
3,3,4,0.22,1,1,1,0,15,18,0,0,1,0,0,2,20,ARITHMETIC_ERROR
0,0,50,0.1,50,50,0,0,200,300,0,0,0,0,0,2,30,RECURSION_RISK
0,0,100,0.08,100,100,1,0,400,600,0,0,0,0,0,2,35,RECURSION_RISK
0,0,40,0.12,40,40,0,0,160,250,0,0,0,0,0,2,25,RECURSION_RISK
0,1,80,0.09,80,80,1,0,320,480,0,0,0,0,0,2,32,RECURSION_RISK
0,0,60,0.11,60,60,0,0,240,350,0,0,0,0,0,2,28,RECURSION_RISK
0,0,0,0,0,0,0,0,0,0,3,0,0,0,0,2,30,COMPILATION_ERROR
0,0,0,0,0,0,0,0,0,0,5,0,0,0,0,3,40,COMPILATION_ERROR
0,0,0,0,0,0,0,0,0,0,1,0,0,0,0,1,15,COMPILATION_ERROR
0,0,0,0,0,0,0,0,0,0,2,0,0,0,0,2,22,COMPILATION_ERROR
0,0,0,0,0,0,0,0,0,0,4,0,0,0,0,2,28,COMPILATION_ERROR
0,0,0,0,0,0,0,0,0,0,1,2,0,0,0,2,25,TYPE_MISMATCH
0,0,0,0,0,0,0,0,0,0,1,1,0,0,0,1,20,TYPE_MISMATCH
0,0,0,0,0,0,0,0,0,0,2,2,0,0,0,2,35,TYPE_MISMATCH
0,0,0,0,0,0,0,0,0,0,1,3,0,0,0,2,30,TYPE_MISMATCH
0,0,0,0,0,0,0,0,0,0,0,1,0,0,0,1,18,TYPE_MISMATCH
5,5,6,0.4,1,1,0,0,30,25,0,0,0,1,0,2,30,RESOURCE_LEAK
2,2,3,0.3,1,1,0,0,18,15,0,0,0,2,0,2,25,RESOURCE_LEAK
8,8,10,0.45,1,1,0,0,45,35,0,0,0,1,0,2,32,RESOURCE_LEAK
1,1,2,0.2,1,1,0,0,12,10,0,0,0,1,0,1,18,RESOURCE_LEAK
3,3,4,0.35,1,1,0,0,22,18,0,0,0,0,2,2,28,LOGICAL_BUG
0,1,2,0.25,1,1,0,0,12,10,0,0,0,0,1,2,20,LOGICAL_BUG
5,5,6,0.38,1,1,0,0,32,25,0,0,0,0,2,2,30,LOGICAL_BUG
1,2,3,0.28,1,1,0,0,16,14,0,0,0,0,1,1,18,LOGICAL_BUG
0,0,1,0.1,1,1,1,0,5,8,0,0,0,0,0,1,12,INDEX_OUT_OF_BOUNDS
0,0,2,0.12,1,1,1,0,6,9,0,0,0,0,0,1,14,INDEX_OUT_OF_BOUNDS
1,1,2,0.15,1,1,1,0,8,10,0,0,0,0,0,1,16,INDEX_OUT_OF_BOUNDS
